p cnf 289 1
289 0
w 1 0.417111
w 2 1 0.839343
w 2 -1 0.371538
w 3 2 0.0432905
w 3 -2 0.969639
w 4 3 1
w 4 -3 0
w 5 4 1
w 5 -4 0
w 6 5 1
w 6 -5 0
w 7 6 0.664881
w 7 -6 0.534982
w 8 7 0.673908
w 8 -7 0.0214966
w 9 8 1
w 9 -8 0
w 10 9 0.265274
w 10 -9 0.355372
w 11 10 1
w 11 -10 0
w 12 11 1
w 12 -11 0
w 13 12 0
w 13 -12 1
w 14 13 1
w 14 -13 0
w 15 14 0
w 15 -14 1
w 16 15 1
w 16 -15 0
w 17 16 1
w 17 -16 0
w 18 1 0.487699
w 18 -1 0.926171
w 19 18 2 0
w 19 18 -2 1
w 19 -18 2 1
w 19 -18 -2 1
w 20 19 3 0
w 20 19 -3 1
w 20 -19 3 0
w 20 -19 -3 0
w 21 20 4 1
w 21 20 -4 0
w 21 -20 4 0
w 21 -20 -4 1
w 22 21 5 1
w 22 21 -5 0
w 22 -21 5 0
w 22 -21 -5 0
w 23 22 6 1
w 23 22 -6 1
w 23 -22 6 1
w 23 -22 -6 0
w 24 23 7 0.772617
w 24 23 -7 0.503712
w 24 -23 7 0.621474
w 24 -23 -7 0.260316
w 25 24 8 0
w 25 24 -8 1
w 25 -24 8 1
w 25 -24 -8 1
w 26 25 9 0.958038
w 26 25 -9 0.124554
w 26 -25 9 0.0305198
w 26 -25 -9 0.0111029
w 27 26 10 0
w 27 26 -10 1
w 27 -26 10 0
w 27 -26 -10 0
w 28 27 11 0
w 28 27 -11 0
w 28 -27 11 1
w 28 -27 -11 0
w 29 28 12 0.0491697
w 29 28 -12 0.972575
w 29 -28 12 0.254658
w 29 -28 -12 0.270896
w 30 29 13 0
w 30 29 -13 0
w 30 -29 13 1
w 30 -29 -13 1
w 31 30 14 1
w 31 30 -14 1
w 31 -30 14 1
w 31 -30 -14 0
w 32 31 15 1
w 32 31 -15 1
w 32 -31 15 0
w 32 -31 -15 1
w 33 32 16 0
w 33 32 -16 1
w 33 -32 16 0
w 33 -32 -16 1
w 34 33 17 0
w 34 33 -17 1
w 34 -33 17 1
w 34 -33 -17 0
w 35 18 0
w 35 -18 1
w 36 35 19 0
w 36 35 -19 0
w 36 -35 19 1
w 36 -35 -19 0
w 37 36 20 0
w 37 36 -20 0
w 37 -36 20 1
w 37 -36 -20 1
w 38 37 21 0
w 38 37 -21 0
w 38 -37 21 1
w 38 -37 -21 1
w 39 38 22 0.261888
w 39 38 -22 0.38936
w 39 -38 22 0.0734122
w 39 -38 -22 0.304492
w 40 39 23 1
w 40 39 -23 0
w 40 -39 23 0
w 40 -39 -23 1
w 41 40 24 1
w 41 40 -24 1
w 41 -40 24 0
w 41 -40 -24 1
w 42 41 25 1
w 42 41 -25 1
w 42 -41 25 0
w 42 -41 -25 1
w 43 42 26 0
w 43 42 -26 1
w 43 -42 26 0
w 43 -42 -26 0
w 44 43 27 1
w 44 43 -27 0
w 44 -43 27 1
w 44 -43 -27 0
w 45 44 28 1
w 45 44 -28 1
w 45 -44 28 1
w 45 -44 -28 0
w 46 45 29 0
w 46 45 -29 1
w 46 -45 29 1
w 46 -45 -29 1
w 47 46 30 0
w 47 46 -30 1
w 47 -46 30 1
w 47 -46 -30 0
w 48 47 31 0
w 48 47 -31 1
w 48 -47 31 0
w 48 -47 -31 1
w 49 48 32 0.926511
w 49 48 -32 0.597816
w 49 -48 32 0.749483
w 49 -48 -32 0.734662
w 50 49 33 0
w 50 49 -33 1
w 50 -49 33 1
w 50 -49 -33 0
w 51 50 34 0
w 51 50 -34 1
w 51 -50 34 0
w 51 -50 -34 0
w 52 35 1
w 52 -35 0
w 53 52 36 1
w 53 52 -36 0
w 53 -52 36 1
w 53 -52 -36 1
w 54 53 37 0.903973
w 54 53 -37 0.28312
w 54 -53 37 0.619333
w 54 -53 -37 0.28522
w 55 54 38 0
w 55 54 -38 0
w 55 -54 38 0
w 55 -54 -38 1
w 56 55 39 1
w 56 55 -39 1
w 56 -55 39 1
w 56 -55 -39 0
w 57 56 40 0
w 57 56 -40 0
w 57 -56 40 1
w 57 -56 -40 1
w 58 57 41 1
w 58 57 -41 1
w 58 -57 41 1
w 58 -57 -41 0
w 59 58 42 0
w 59 58 -42 0
w 59 -58 42 0
w 59 -58 -42 1
w 60 59 43 0
w 60 59 -43 1
w 60 -59 43 0
w 60 -59 -43 1
w 61 60 44 0.201756
w 61 60 -44 0.455857
w 61 -60 44 0.771775
w 61 -60 -44 0.921437
w 62 61 45 0
w 62 61 -45 1
w 62 -61 45 1
w 62 -61 -45 1
w 63 62 46 0.999518
w 63 62 -46 0.219603
w 63 -62 46 0.772227
w 63 -62 -46 0.0944421
w 64 63 47 0
w 64 63 -47 0
w 64 -63 47 0
w 64 -63 -47 1
w 65 64 48 0
w 65 64 -48 1
w 65 -64 48 1
w 65 -64 -48 1
w 66 65 49 1
w 66 65 -49 0
w 66 -65 49 1
w 66 -65 -49 0
w 67 66 50 0.245849
w 67 66 -50 0.149752
w 67 -66 50 0.634412
w 67 -66 -50 0.167287
w 68 67 51 0
w 68 67 -51 0
w 68 -67 51 0
w 68 -67 -51 1
w 69 52 1
w 69 -52 0
w 70 69 53 0
w 70 69 -53 0
w 70 -69 53 1
w 70 -69 -53 0
w 71 70 54 0
w 71 70 -54 1
w 71 -70 54 0
w 71 -70 -54 1
w 72 71 55 1
w 72 71 -55 0
w 72 -71 55 0
w 72 -71 -55 0
w 73 72 56 0.809599
w 73 72 -56 0.923504
w 73 -72 56 0.626409
w 73 -72 -56 0.0554484
w 74 73 57 0
w 74 73 -57 1
w 74 -73 57 0
w 74 -73 -57 0
w 75 74 58 0.612552
w 75 74 -58 0.0111603
w 75 -74 58 0.0955949
w 75 -74 -58 0.744451
w 76 75 59 0.197614
w 76 75 -59 0.970792
w 76 -75 59 0.135831
w 76 -75 -59 0.63924
w 77 76 60 1
w 77 76 -60 0
w 77 -76 60 1
w 77 -76 -60 1
w 78 77 61 0
w 78 77 -61 1
w 78 -77 61 0
w 78 -77 -61 0
w 79 78 62 0.61886
w 79 78 -62 0.904953
w 79 -78 62 0.398428
w 79 -78 -62 0.674308
w 80 79 63 0.65925
w 80 79 -63 0.897044
w 80 -79 63 0.458379
w 80 -79 -63 0.0526381
w 81 80 64 1
w 81 80 -64 0
w 81 -80 64 1
w 81 -80 -64 1
w 82 81 65 0.956055
w 82 81 -65 0.786174
w 82 -81 65 0.0481646
w 82 -81 -65 0.595295
w 83 82 66 0
w 83 82 -66 0
w 83 -82 66 1
w 83 -82 -66 0
w 84 83 67 0.0395882
w 84 83 -67 0.416103
w 84 -83 67 0.823862
w 84 -83 -67 0.848849
w 85 84 68 0
w 85 84 -68 0
w 85 -84 68 1
w 85 -84 -68 1
w 86 69 0
w 86 -69 1
w 87 86 70 0
w 87 86 -70 0
w 87 -86 70 1
w 87 -86 -70 1
w 88 87 71 0.769995
w 88 87 -71 0.460349
w 88 -87 71 0.625407
w 88 -87 -71 0.682329
w 89 88 72 1
w 89 88 -72 1
w 89 -88 72 1
w 89 -88 -72 0
w 90 89 73 0
w 90 89 -73 1
w 90 -89 73 1
w 90 -89 -73 1
w 91 90 74 1
w 91 90 -74 0
w 91 -90 74 1
w 91 -90 -74 1
w 92 91 75 0.211423
w 92 91 -75 0.744748
w 92 -91 75 0.987654
w 92 -91 -75 0.492138
w 93 92 76 0
w 93 92 -76 1
w 93 -92 76 0
w 93 -92 -76 1
w 94 93 77 0
w 94 93 -77 0
w 94 -93 77 0
w 94 -93 -77 1
w 95 94 78 1
w 95 94 -78 0
w 95 -94 78 1
w 95 -94 -78 0
w 96 95 79 1
w 96 95 -79 0
w 96 -95 79 0
w 96 -95 -79 1
w 97 96 80 1
w 97 96 -80 1
w 97 -96 80 1
w 97 -96 -80 0
w 98 97 81 0.445281
w 98 97 -81 0.112598
w 98 -97 81 0.801687
w 98 -97 -81 0.937419
w 99 98 82 0
w 99 98 -82 1
w 99 -98 82 1
w 99 -98 -82 0
w 100 99 83 1
w 100 99 -83 0
w 100 -99 83 0
w 100 -99 -83 1
w 101 100 84 1
w 101 100 -84 0
w 101 -100 84 0
w 101 -100 -84 0
w 102 101 85 1
w 102 101 -85 0
w 102 -101 85 0
w 102 -101 -85 0
w 103 86 0
w 103 -86 1
w 104 103 87 1
w 104 103 -87 0
w 104 -103 87 0
w 104 -103 -87 0
w 105 104 88 0
w 105 104 -88 0
w 105 -104 88 1
w 105 -104 -88 1
w 106 105 89 0.787635
w 106 105 -89 0.148133
w 106 -105 89 0.186016
w 106 -105 -89 0.277542
w 107 106 90 0.0625903
w 107 106 -90 0.324277
w 107 -106 90 0.245507
w 107 -106 -90 0.0174117
w 108 107 91 0
w 108 107 -91 1
w 108 -107 91 1
w 108 -107 -91 0
w 109 108 92 1
w 109 108 -92 0
w 109 -108 92 0
w 109 -108 -92 0
w 110 109 93 0
w 110 109 -93 0
w 110 -109 93 1
w 110 -109 -93 1
w 111 110 94 0
w 111 110 -94 1
w 111 -110 94 0
w 111 -110 -94 0
w 112 111 95 0.845917
w 112 111 -95 0.228811
w 112 -111 95 0.920789
w 112 -111 -95 0.0319324
w 113 112 96 0
w 113 112 -96 1
w 113 -112 96 0
w 113 -112 -96 1
w 114 113 97 1
w 114 113 -97 1
w 114 -113 97 1
w 114 -113 -97 0
w 115 114 98 0
w 115 114 -98 1
w 115 -114 98 1
w 115 -114 -98 0
w 116 115 99 1
w 116 115 -99 0
w 116 -115 99 1
w 116 -115 -99 0
w 117 116 100 0.798583
w 117 116 -100 0.402471
w 117 -116 100 0.157385
w 117 -116 -100 0.668393
w 118 117 101 0.930041
w 118 117 -101 0.51431
w 118 -117 101 0.0724585
w 118 -117 -101 0.85083
w 119 118 102 1
w 119 118 -102 1
w 119 -118 102 0
w 119 -118 -102 0
w 120 103 0
w 120 -103 1
w 121 120 104 0.000563803
w 121 120 -104 0.40877
w 121 -120 104 0.0980836
w 121 -120 -104 0.589519
w 122 121 105 0
w 122 121 -105 1
w 122 -121 105 1
w 122 -121 -105 0
w 123 122 106 1
w 123 122 -106 1
w 123 -122 106 0
w 123 -122 -106 1
w 124 123 107 0.118387
w 124 123 -107 0.986474
w 124 -123 107 0.621537
w 124 -123 -107 0.962034
w 125 124 108 0.135847
w 125 124 -108 0.034493
w 125 -124 108 0.767345
w 125 -124 -108 0.682089
w 126 125 109 0
w 126 125 -109 0
w 126 -125 109 1
w 126 -125 -109 0
w 127 126 110 0
w 127 126 -110 0
w 127 -126 110 1
w 127 -126 -110 1
w 128 127 111 0
w 128 127 -111 0
w 128 -127 111 1
w 128 -127 -111 1
w 129 128 112 0
w 129 128 -112 1
w 129 -128 112 1
w 129 -128 -112 1
w 130 129 113 1
w 130 129 -113 0
w 130 -129 113 1
w 130 -129 -113 1
w 131 130 114 1
w 131 130 -114 1
w 131 -130 114 0
w 131 -130 -114 1
w 132 131 115 0.763449
w 132 131 -115 0.182032
w 132 -131 115 0.855139
w 132 -131 -115 0.922721
w 133 132 116 1
w 133 132 -116 1
w 133 -132 116 0
w 133 -132 -116 0
w 134 133 117 0.423324
w 134 133 -117 0.689193
w 134 -133 117 0.637772
w 134 -133 -117 0.401002
w 135 134 118 1
w 135 134 -118 1
w 135 -134 118 0
w 135 -134 -118 0
w 136 135 119 0.887458
w 136 135 -119 0.352762
w 136 -135 119 0.538448
w 136 -135 -119 0.928701
w 137 120 0
w 137 -120 1
w 138 137 121 0
w 138 137 -121 0
w 138 -137 121 0
w 138 -137 -121 1
w 139 138 122 0
w 139 138 -122 0
w 139 -138 122 1
w 139 -138 -122 1
w 140 139 123 0
w 140 139 -123 1
w 140 -139 123 1
w 140 -139 -123 1
w 141 140 124 0
w 141 140 -124 1
w 141 -140 124 1
w 141 -140 -124 0
w 142 141 125 0
w 142 141 -125 0
w 142 -141 125 0
w 142 -141 -125 1
w 143 142 126 0
w 143 142 -126 0
w 143 -142 126 1
w 143 -142 -126 1
w 144 143 127 0
w 144 143 -127 1
w 144 -143 127 1
w 144 -143 -127 1
w 145 144 128 0
w 145 144 -128 1
w 145 -144 128 1
w 145 -144 -128 1
w 146 145 129 0
w 146 145 -129 1
w 146 -145 129 1
w 146 -145 -129 1
w 147 146 130 1
w 147 146 -130 1
w 147 -146 130 1
w 147 -146 -130 0
w 148 147 131 1
w 148 147 -131 1
w 148 -147 131 0
w 148 -147 -131 1
w 149 148 132 0
w 149 148 -132 1
w 149 -148 132 1
w 149 -148 -132 1
w 150 149 133 0.964805
w 150 149 -133 0.474355
w 150 -149 133 0.274377
w 150 -149 -133 0.131229
w 151 150 134 1
w 151 150 -134 1
w 151 -150 134 0
w 151 -150 -134 0
w 152 151 135 0.355503
w 152 151 -135 0.568146
w 152 -151 135 0.652777
w 152 -151 -135 0.114438
w 153 152 136 1
w 153 152 -136 1
w 153 -152 136 1
w 153 -152 -136 0
w 154 137 1
w 154 -137 0
w 155 154 138 0.245094
w 155 154 -138 0.236955
w 155 -154 138 0.733001
w 155 -154 -138 0.842131
w 156 155 139 0
w 156 155 -139 0
w 156 -155 139 1
w 156 -155 -139 1
w 157 156 140 1
w 157 156 -140 1
w 157 -156 140 0
w 157 -156 -140 0
w 158 157 141 1
w 158 157 -141 0
w 158 -157 141 0
w 158 -157 -141 0
w 159 158 142 0
w 159 158 -142 1
w 159 -158 142 0
w 159 -158 -142 1
w 160 159 143 1
w 160 159 -143 0
w 160 -159 143 1
w 160 -159 -143 1
w 161 160 144 1
w 161 160 -144 0
w 161 -160 144 1
w 161 -160 -144 0
w 162 161 145 0
w 162 161 -145 0
w 162 -161 145 0
w 162 -161 -145 1
w 163 162 146 1
w 163 162 -146 0
w 163 -162 146 0
w 163 -162 -146 1
w 164 163 147 0.521013
w 164 163 -147 0.438636
w 164 -163 147 0.730927
w 164 -163 -147 0.592826
w 165 164 148 0
w 165 164 -148 0
w 165 -164 148 1
w 165 -164 -148 0
w 166 165 149 0
w 166 165 -149 0
w 166 -165 149 0
w 166 -165 -149 1
w 167 166 150 1
w 167 166 -150 0
w 167 -166 150 1
w 167 -166 -150 1
w 168 167 151 1
w 168 167 -151 0
w 168 -167 151 0
w 168 -167 -151 1
w 169 168 152 0.488997
w 169 168 -152 0.283613
w 169 -168 152 0.0676024
w 169 -168 -152 0.266364
w 170 169 153 0
w 170 169 -153 1
w 170 -169 153 1
w 170 -169 -153 1
w 171 154 0.831897
w 171 -154 0.414226
w 172 171 155 0
w 172 171 -155 1
w 172 -171 155 0
w 172 -171 -155 0
w 173 172 156 1
w 173 172 -156 1
w 173 -172 156 0
w 173 -172 -156 0
w 174 173 157 1
w 174 173 -157 0
w 174 -173 157 1
w 174 -173 -157 0
w 175 174 158 0
w 175 174 -158 1
w 175 -174 158 1
w 175 -174 -158 1
w 176 175 159 0.0211517
w 176 175 -159 0.543076
w 176 -175 159 0.0573309
w 176 -175 -159 0.609767
w 177 176 160 0
w 177 176 -160 1
w 177 -176 160 0
w 177 -176 -160 1
w 178 177 161 0
w 178 177 -161 1
w 178 -177 161 0
w 178 -177 -161 0
w 179 178 162 0
w 179 178 -162 1
w 179 -178 162 1
w 179 -178 -162 0
w 180 179 163 0
w 180 179 -163 1
w 180 -179 163 0
w 180 -179 -163 0
w 181 180 164 0.0434212
w 181 180 -164 0.505443
w 181 -180 164 0.344675
w 181 -180 -164 0.99697
w 182 181 165 0.143897
w 182 181 -165 0.0181222
w 182 -181 165 0.325231
w 182 -181 -165 0.201228
w 183 182 166 0
w 183 182 -166 1
w 183 -182 166 0
w 183 -182 -166 1
w 184 183 167 0
w 184 183 -167 1
w 184 -183 167 0
w 184 -183 -167 0
w 185 184 168 1
w 185 184 -168 0
w 185 -184 168 1
w 185 -184 -168 0
w 186 185 169 0.00765066
w 186 185 -169 0.344967
w 186 -185 169 0.634388
w 186 -185 -169 0.87387
w 187 186 170 1
w 187 186 -170 1
w 187 -186 170 1
w 187 -186 -170 0
w 188 171 0.350293
w 188 -171 0.952025
w 189 188 172 0.675524
w 189 188 -172 0.153253
w 189 -188 172 0.560274
w 189 -188 -172 0.248831
w 190 189 173 0
w 190 189 -173 1
w 190 -189 173 0
w 190 -189 -173 1
w 191 190 174 0
w 191 190 -174 1
w 191 -190 174 0
w 191 -190 -174 0
w 192 191 175 1
w 192 191 -175 0
w 192 -191 175 0
w 192 -191 -175 0
w 193 192 176 0
w 193 192 -176 1
w 193 -192 176 0
w 193 -192 -176 1
w 194 193 177 1
w 194 193 -177 1
w 194 -193 177 0
w 194 -193 -177 0
w 195 194 178 0
w 195 194 -178 0
w 195 -194 178 1
w 195 -194 -178 0
w 196 195 179 1
w 196 195 -179 0
w 196 -195 179 0
w 196 -195 -179 0
w 197 196 180 0.116173
w 197 196 -180 0.439486
w 197 -196 180 0.677924
w 197 -196 -180 0.872706
w 198 197 181 1
w 198 197 -181 1
w 198 -197 181 0
w 198 -197 -181 1
w 199 198 182 0.311684
w 199 198 -182 0.425871
w 199 -198 182 0.499826
w 199 -198 -182 0.154943
w 200 199 183 0.767123
w 200 199 -183 0.80633
w 200 -199 183 0.176943
w 200 -199 -183 0.384714
w 201 200 184 1
w 201 200 -184 0
w 201 -200 184 1
w 201 -200 -184 1
w 202 201 185 0
w 202 201 -185 1
w 202 -201 185 1
w 202 -201 -185 0
w 203 202 186 0
w 203 202 -186 0
w 203 -202 186 0
w 203 -202 -186 1
w 204 203 187 0
w 204 203 -187 1
w 204 -203 187 1
w 204 -203 -187 1
w 205 188 0.350133
w 205 -188 0.933823
w 206 205 189 0
w 206 205 -189 0
w 206 -205 189 0
w 206 -205 -189 1
w 207 206 190 1
w 207 206 -190 0
w 207 -206 190 0
w 207 -206 -190 0
w 208 207 191 0
w 208 207 -191 1
w 208 -207 191 0
w 208 -207 -191 1
w 209 208 192 1
w 209 208 -192 1
w 209 -208 192 0
w 209 -208 -192 1
w 210 209 193 0
w 210 209 -193 1
w 210 -209 193 0
w 210 -209 -193 0
w 211 210 194 1
w 211 210 -194 1
w 211 -210 194 1
w 211 -210 -194 0
w 212 211 195 0.154601
w 212 211 -195 0.448738
w 212 -211 195 0.772107
w 212 -211 -195 0.768151
w 213 212 196 0
w 213 212 -196 0
w 213 -212 196 1
w 213 -212 -196 0
w 214 213 197 0
w 214 213 -197 1
w 214 -213 197 1
w 214 -213 -197 1
w 215 214 198 0
w 215 214 -198 0
w 215 -214 198 1
w 215 -214 -198 1
w 216 215 199 1
w 216 215 -199 1
w 216 -215 199 1
w 216 -215 -199 0
w 217 216 200 0
w 217 216 -200 0
w 217 -216 200 1
w 217 -216 -200 0
w 218 217 201 0.21998
w 218 217 -201 0.668092
w 218 -217 201 0.764048
w 218 -217 -201 0.988131
w 219 218 202 0.933191
w 219 218 -202 0.0476616
w 219 -218 202 0.895421
w 219 -218 -202 0.766689
w 220 219 203 1
w 220 219 -203 0
w 220 -219 203 0
w 220 -219 -203 0
w 221 220 204 1
w 221 220 -204 1
w 221 -220 204 0
w 221 -220 -204 0
w 222 205 1
w 222 -205 0
w 223 222 206 0
w 223 222 -206 0
w 223 -222 206 1
w 223 -222 -206 1
w 224 223 207 1
w 224 223 -207 0
w 224 -223 207 1
w 224 -223 -207 1
w 225 224 208 0.634273
w 225 224 -208 0.260292
w 225 -224 208 0.747403
w 225 -224 -208 0.472251
w 226 225 209 0
w 226 225 -209 0
w 226 -225 209 0
w 226 -225 -209 1
w 227 226 210 0
w 227 226 -210 1
w 227 -226 210 0
w 227 -226 -210 1
w 228 227 211 1
w 228 227 -211 1
w 228 -227 211 0
w 228 -227 -211 0
w 229 228 212 1
w 229 228 -212 0
w 229 -228 212 0
w 229 -228 -212 0
w 230 229 213 1
w 230 229 -213 0
w 230 -229 213 0
w 230 -229 -213 0
w 231 230 214 1
w 231 230 -214 0
w 231 -230 214 0
w 231 -230 -214 1
w 232 231 215 1
w 232 231 -215 0
w 232 -231 215 1
w 232 -231 -215 1
w 233 232 216 1
w 233 232 -216 1
w 233 -232 216 0
w 233 -232 -216 0
w 234 233 217 0
w 234 233 -217 1
w 234 -233 217 0
w 234 -233 -217 0
w 235 234 218 0
w 235 234 -218 1
w 235 -234 218 1
w 235 -234 -218 1
w 236 235 219 1
w 236 235 -219 0
w 236 -235 219 1
w 236 -235 -219 1
w 237 236 220 0.908653
w 237 236 -220 0.163253
w 237 -236 220 0.616114
w 237 -236 -220 0.307366
w 238 237 221 1
w 238 237 -221 0
w 238 -237 221 0
w 238 -237 -221 0
w 239 222 1
w 239 -222 0
w 240 239 223 0
w 240 239 -223 1
w 240 -239 223 0
w 240 -239 -223 1
w 241 240 224 1
w 241 240 -224 0
w 241 -240 224 1
w 241 -240 -224 1
w 242 241 225 0
w 242 241 -225 0
w 242 -241 225 1
w 242 -241 -225 1
w 243 242 226 1
w 243 242 -226 0
w 243 -242 226 0
w 243 -242 -226 0
w 244 243 227 0
w 244 243 -227 1
w 244 -243 227 1
w 244 -243 -227 1
w 245 244 228 1
w 245 244 -228 0
w 245 -244 228 1
w 245 -244 -228 0
w 246 245 229 0
w 246 245 -229 1
w 246 -245 229 0
w 246 -245 -229 1
w 247 246 230 1
w 247 246 -230 0
w 247 -246 230 1
w 247 -246 -230 0
w 248 247 231 0.428278
w 248 247 -231 0.100235
w 248 -247 231 0.433554
w 248 -247 -231 0.125844
w 249 248 232 0.787889
w 249 248 -232 0.59364
w 249 -248 232 0.373995
w 249 -248 -232 0.0636594
w 250 249 233 0.0378916
w 250 249 -233 0.955543
w 250 -249 233 0.653906
w 250 -249 -233 0.0481717
w 251 250 234 1
w 251 250 -234 0
w 251 -250 234 1
w 251 -250 -234 0
w 252 251 235 1
w 252 251 -235 0
w 252 -251 235 1
w 252 -251 -235 1
w 253 252 236 1
w 253 252 -236 0
w 253 -252 236 1
w 253 -252 -236 0
w 254 253 237 0.669566
w 254 253 -237 0.882392
w 254 -253 237 0.0609519
w 254 -253 -237 0.103119
w 255 254 238 0
w 255 254 -238 1
w 255 -254 238 1
w 255 -254 -238 1
w 256 239 0.571966
w 256 -239 0.346189
w 257 256 240 0.225872
w 257 256 -240 0.394361
w 257 -256 240 0.540683
w 257 -256 -240 0.463158
w 258 257 241 0.163728
w 258 257 -241 0.735756
w 258 -257 241 0.21146
w 258 -257 -241 0.163606
w 259 258 242 1
w 259 258 -242 0
w 259 -258 242 1
w 259 -258 -242 0
w 260 259 243 0.589599
w 260 259 -243 0.57683
w 260 -259 243 0.719318
w 260 -259 -243 0.259164
w 261 260 244 1
w 261 260 -244 0
w 261 -260 244 1
w 261 -260 -244 0
w 262 261 245 0
w 262 261 -245 1
w 262 -261 245 0
w 262 -261 -245 0
w 263 262 246 0
w 263 262 -246 0
w 263 -262 246 1
w 263 -262 -246 1
w 264 263 247 0
w 264 263 -247 1
w 264 -263 247 1
w 264 -263 -247 0
w 265 264 248 0.410785
w 265 264 -248 0.279641
w 265 -264 248 0.162263
w 265 -264 -248 0.271064
w 266 265 249 1
w 266 265 -249 0
w 266 -265 249 1
w 266 -265 -249 0
w 267 266 250 0
w 267 266 -250 0
w 267 -266 250 0
w 267 -266 -250 1
w 268 267 251 0
w 268 267 -251 1
w 268 -267 251 1
w 268 -267 -251 1
w 269 268 252 0
w 269 268 -252 1
w 269 -268 252 0
w 269 -268 -252 0
w 270 269 253 0
w 270 269 -253 0
w 270 -269 253 1
w 270 -269 -253 0
w 271 270 254 1
w 271 270 -254 0
w 271 -270 254 1
w 271 -270 -254 1
w 272 271 255 0
w 272 271 -255 1
w 272 -271 255 0
w 272 -271 -255 1
w 273 256 0
w 273 -256 1
w 274 273 257 0
w 274 273 -257 0
w 274 -273 257 1
w 274 -273 -257 0
w 275 274 258 0
w 275 274 -258 1
w 275 -274 258 1
w 275 -274 -258 1
w 276 275 259 0.664289
w 276 275 -259 0.783166
w 276 -275 259 0.485236
w 276 -275 -259 0.478293
w 277 276 260 0
w 277 276 -260 0
w 277 -276 260 1
w 277 -276 -260 1
w 278 277 261 0
w 278 277 -261 1
w 278 -277 261 0
w 278 -277 -261 1
w 279 278 262 0.633795
w 279 278 -262 0.570991
w 279 -278 262 0.113564
w 279 -278 -262 0.176222
w 280 279 263 1
w 280 279 -263 1
w 280 -279 263 1
w 280 -279 -263 0
w 281 280 264 0.407068
w 281 280 -264 0.560273
w 281 -280 264 0.66401
w 281 -280 -264 0.587684
w 282 281 265 0
w 282 281 -265 0
w 282 -281 265 1
w 282 -281 -265 0
w 283 282 266 0
w 283 282 -266 0
w 283 -282 266 0
w 283 -282 -266 1
w 284 283 267 1
w 284 283 -267 1
w 284 -283 267 0
w 284 -283 -267 1
w 285 284 268 0
w 285 284 -268 1
w 285 -284 268 1
w 285 -284 -268 1
w 286 285 269 0.50962
w 286 285 -269 0.959878
w 286 -285 269 0.703623
w 286 -285 -269 0.104053
w 287 286 270 0.110691
w 287 286 -270 0.664326
w 287 -286 270 0.584592
w 287 -286 -270 0.698375
w 288 287 271 1
w 288 287 -271 0
w 288 -287 271 1
w 288 -287 -271 1
w 289 288 272 1
w 289 288 -272 1
w 289 -288 272 0
w 289 -288 -272 0